
Gurobi 6.0.4 (win64) logging started 06/20/15 12:05:20

Read LP format model from file C:\MT\repository\VRPTWMS\instances\mip\fuel\N8-C_DV100-C_SV30_F6_5_No_1.lp
Reading time = 0.01 seconds
(null): 417 rows, 208 columns, 1715 nonzeros
Optimize a model with 417 rows, 208 columns and 1715 nonzeros
Model has 576 quadratic constraints
Coefficient statistics:
  Matrix range    [1e+00, 1e+06]
  Objective range [2e+04, 1e+07]
  Bounds range    [1e+00, 1e+06]
  RHS range       [1e+00, 1e+06]
Presolve removed 32 rows and 14 columns
Presolve time: 0.08s
Presolved: 1464 rows, 761 columns, 7174 nonzeros
Variable types: 512 continuous, 249 integer (206 binary)
Found heuristic solution: objective 8.329780e+07

Root relaxation: objective 9.299051e+05, 86 iterations, 0.00 seconds

    Nodes    |    Current Node    |     Objective Bounds      |     Work
 Expl Unexpl |  Obj  Depth IntInf | Incumbent    BestBd   Gap | It/Node Time

     0     0 929905.101    0   28 8.3298e+07 929905.101  98.9%     -    0s
H    0     0                    6.214140e+07 929905.101  98.5%     -    0s
     0     0 1063776.61    0   40 6.2141e+07 1063776.61  98.3%     -    0s
     0     0 1178966.10    0   40 6.2141e+07 1178966.10  98.1%     -    0s
H    0     0                    5.205000e+07 1178966.10  97.7%     -    0s
H    0     0                    3.196080e+07 1178966.10  96.3%     -    0s
     0     0 1209334.89    0   37 3.1961e+07 1209334.89  96.2%     -    0s
     0     0 1212200.00    0   25 3.1961e+07 1212200.00  96.2%     -    0s
     0     0 1212200.00    0   28 3.1961e+07 1212200.00  96.2%     -    0s
     0     0 1212200.00    0   28 3.1961e+07 1212200.00  96.2%     -    0s
     0     0 1212200.00    0   24 3.1961e+07 1212200.00  96.2%     -    0s
     0     0 1212200.00    0   24 3.1961e+07 1212200.00  96.2%     -    0s
     0     0 1212200.00    0   23 3.1961e+07 1212200.00  96.2%     -    0s
     0     0 1212200.00    0   23 3.1961e+07 1212200.00  96.2%     -    0s
     0     2 1212200.00    0   23 3.1961e+07 1212200.00  96.2%     -    0s
H  212   155                    3.195470e+07 1435454.32  95.5%  28.0    0s
H  726   391                    3.194380e+07 5214552.98  83.7%  23.0    0s
H  794   395                    3.187200e+07 1.1205e+07  64.8%  25.2    1s
H  850   386                    3.165880e+07 1.1273e+07  64.4%  25.9    1s
*  982   394              41    3.138790e+07 1.1285e+07  64.0%  25.7    1s
H 1327   387                    3.138550e+07 1.1328e+07  63.9%  30.4    2s
* 1362   373              40    3.135560e+07 1.1328e+07  63.9%  30.1    2s
H 1552   364                    3.131370e+07 1.1345e+07  63.8%  31.1    2s
  2763   761 infeasible   39      3.1314e+07 1.1445e+07  63.4%  35.1    5s
  5523  1497 2.2214e+07   33   22 3.1314e+07 1.1657e+07  62.8%  39.4   10s
  8337  2090 1.3013e+07   21   36 3.1314e+07 1.1897e+07  62.0%  41.9   15s
 11201  2512 2.2298e+07   38   43 3.1314e+07 1.2100e+07  61.4%  44.2   20s
 14222  2940 infeasible   36      3.1314e+07 1.2422e+07  60.3%  44.5   25s
 14654  2990 2.2384e+07   33   50 3.1314e+07 1.2491e+07  60.1%  44.6   30s
 16096  3023 1.3630e+07   41   45 3.1314e+07 1.2491e+07  60.1%  45.5   35s
 18717  2701 infeasible   48      3.1314e+07 1.2491e+07  60.1%  48.0   40s
 20947  2354 1.3531e+07   52   80 3.1314e+07 1.2491e+07  60.1%  49.4   45s
 23251  1931 1.2491e+07   50   37 3.1314e+07 1.2491e+07  60.1%  50.0   50s
*23411  1256              43    2.201520e+07 1.2491e+07  43.3%  50.1   50s
*24946   943              43    2.199250e+07 1.2825e+07  41.7%  50.5   54s
 25155   870     cutoff   60      2.1992e+07 1.3023e+07  40.8%  50.5   55s
 27848   450 2.1311e+07   37   12 2.1992e+07 2.1311e+07  3.10%  49.5   60s

Cutting planes:
  Learned: 16
  Gomory: 11
  Cover: 9
  Implied bound: 105
  Clique: 10
  MIR: 68
  Flow cover: 96
  GUB cover: 8
  Zero half: 14

Explored 30285 nodes (1458745 simplex iterations) in 62.95 seconds
Thread count was 2 (of 4 available processors)

Optimal solution found (tolerance 1.00e-04)
Best objective 2.199250000000e+07, best bound 2.199250000000e+07, gap 0.0%
k_c1	1000000.0
k_c2	100000.0
k_c3	940000.0
k_c4	950000.0
k_c5	50000.0
k_c6	900000.0
k_c7	200000.0
k_c8	160000.0
k_dN	-0.0
o_1	-0.0
o_2	-0.0
o_3	-0.0
o_4	1.0
o_5	-0.0
o_6	-0.0
o_7	-0.0
o_8	-0.0
p_1	-0.0
p_2	0.0
p_3	9.992007221626409E-16
p_4	1.0
p_5	0.0
p_6	0.0
p_7	-0.0
p_8	0.0
phi_c1	37508.0
phi_c2	4762.999999999998
phi_c3	50288.99999999987
phi_c4	34096.0
phi_c5	2756.0
phi_c6	44267.99999999993
phi_c7	23261.0
phi_c8	13226.0
phi_dN	-0.0
pi_c1	-0.0
pi_c2	-0.0
pi_c3	-0.0
pi_c4	25903.999999999993
pi_c5	-0.0
pi_c6	-0.0
pi_c7	-0.0
pi_c8	-0.0
pi_dN	-0.0
tauD_c1	84050.0
tauD_c2	842200.0
tauD_c3	369000.0
tauD_c4	170000.0
tauD_c5	919700.0
tauD_c6	451500.0000000001
tauD_c7	600000.0
tauD_c8	730575.0
tauD_d0	-0.0
tauD_dN	1000000.0
tauS_c1	163675.0
tauS_c2	77200.0
tauS_c3	838600.0
tauS_c4	183500.00000000035
tauS_c5	909700.0
tauS_c6	159850.00000000006
tauS_c7	84275.0
tauS_c8	104425.0
tauS_d0	-0.0
tauS_dN	357450.0000000001
x_c1_c4	1.0
x_c2_c5	1.0
x_c3_c6	1.0
x_c4_c3	1.0
x_c5_dN	1.0
x_c6_c7	1.0
x_c7_c8	1.0
x_c8_c2	1.0
x_d0_c1	1.0
z_c4_dN	0.9999999999999998
z_d0_c4	0.9999999999999993
